nK = 2982;
nT = 8;
nI = 21;
L = 29;
TT = 607;
np = 1;
nc = 3;
b = [36, 67, 68, 66, 35, 33, 43, 38, 37, 68, 48, 67, 55, 55, 41, 55, 30, 37, 20, 35, 38];
d = [147, 121, 121, 133, 94, 145, 72, 112, 111, 132, 140, 107, 96, 110, 71, 112, 93, 115, 105, 96, 91];
m = [1.2, 1.8, 1.6, 1.4, 2.1, 1.1, 2.5, 1.5, 1, 2.1, 1.2, 1.2, 1.8, 2.5, 1.1, 1.1, 1.1, 1.9, 1, 2.5, 1.4];
pt = [0.29, 0.28, 0.34, 0.35, 0.31, 0.26, 0.2, 0.34];
st = [14.5, 15.4, 14.62, 14.35, 12.4, 12.48, 10.6, 15.98];
arc = {<1, 0, 1, 1, 0, 0, 0, [1, 1, 1, 1, 1, 1, 1, 1]>, <2, 1, 2, 1, 0, 0, 0, [1, 1, 1, 1, 1, 1, 1, 1]>, <3, 2, 3, 1, 0, 0, 0, [1, 1, 1, 1, 1, 1, 1, 1]>, <4, 3, 4, 1, 0, 0, 0, [1, 1, 1, 1, 1, 1, 1, 1]>, <5, 4, 5, 1, 0, 0, 0, [1, 1, 1, 1, 1, 1, 1, 1]>, <6, 5, 6, 1, 0, 0, 0, [1, 1, 1, 1, 1, 1, 1, 1]>, <7, 6, 7, 1, 0, 0, 0, [1, 1, 1, 1, 1, 1, 1, 1]>, <8, 7, 8, 1, 0, 0, 0, [1, 1, 1, 1, 1, 1, 1, 1]>, <9, 8, 9, 1, 0, 0, 0, [1, 1, 1, 1, 1, 1, 1, 1]>, <10, 9, 10, 1, 0, 0, 0, [1, 1, 1, 1, 1, 1, 1, 1]>, <11, 10, 11, 1, 0, 0, 0, [1, 1, 1, 1, 1, 1, 1, 1]>, <12, 11, 12, 1, 0, 0, 0, [1, 1, 1, 1, 1, 1, 1, 1]>, <13, 12, 13, 1, 0, 0, 0, [1, 1, 1, 1, 1, 1, 1, 1]>, <14, 13, 14, 1, 0, 0, 0, [1, 1, 1, 1, 1, 1, 1, 1]>, <15, 14, 15, 1, 0, 0, 0, [1, 1, 1, 1, 1, 1, 1, 1]>, <16, 15, 16, 1, 0, 0, 0, [1, 1, 1, 1, 1, 1, 1, 1]>, <17, 16, 17, 1, 0, 0, 0, [1, 1, 1, 1, 1, 1, 1, 1]>, <18, 17, 18, 1, 0, 0, 0, [1, 1, 1, 1, 1, 1, 1, 1]>, <19, 18, 19, 1, 0, 0, 0, [1, 1, 1, 1, 1, 1, 1, 1]>, <20, 19, 20, 1, 0, 0, 0, [1, 1, 1, 1, 1, 1, 1, 1]>, <21, 20, 21, 1, 0, 0, 0, [1, 1, 1, 1, 1, 1, 1, 1]>, <22, 21, 22, 1, 0, 0, 0, [1, 1, 1, 1, 1, 1, 1, 1]>, <23, 22, 23, 1, 0, 0, 0, [1, 1, 1, 1, 1, 1, 1, 1]>, <24, 23, 24, 1, 0, 0, 0, [1, 1, 1, 1, 1, 1, 1, 1]>, <25, 24, 25, 1, 0, 0, 0, [1, 1, 1, 1, 1, 1, 1, 1]>, <26, 25, 26, 1, 0, 0, 0, [1, 1, 1, 1, 1, 1, 1, 1]>, <27, 26, 27, 1, 0, 0, 0, [1, 1, 1, 1, 1, 1, 1, 1]>, <28, 27, 28, 1, 0, 0, 0, [1, 1, 1, 1, 1, 1, 1, 1]>, <29, 28, 29, 1, 0, 0, 0, [1, 1, 1, 1, 1, 1, 1, 1]>, <30, 0, 17, 17, 1, 0, 0, [0, 0, 1, 1, 0, 0, 0, 0]>, <31, 1, 18, 17, 1, 0, 0, [0, 0, 1, 1, 0, 0, 0, 0]>, <32, 2, 19, 17, 1, 0, 0, [0, 0, 1, 1, 0, 0, 0, 0]>, <33, 3, 20, 17, 1, 0, 0, [0, 0, 1, 1, 0, 0, 0, 0]>, <34, 4, 21, 17, 1, 0, 0, [0, 0, 1, 1, 0, 0, 0, 0]>, <35, 5, 22, 17, 1, 0, 0, [0, 0, 1, 1, 0, 0, 0, 0]>, <36, 6, 23, 17, 1, 0, 0, [0, 0, 1, 1, 0, 0, 0, 0]>, <37, 7, 24, 17, 1, 0, 0, [0, 0, 1, 1, 0, 0, 0, 0]>, <38, 8, 25, 17, 1, 0, 0, [0, 0, 1, 1, 0, 0, 0, 0]>, <39, 9, 26, 17, 1, 0, 0, [0, 0, 1, 1, 0, 0, 0, 0]>, <40, 10, 27, 17, 1, 0, 0, [0, 0, 1, 1, 0, 0, 0, 0]>, <41, 11, 28, 17, 1, 0, 0, [0, 0, 1, 1, 0, 0, 0, 0]>, <42, 12, 29, 17, 1, 0, 0, [0, 0, 1, 1, 0, 0, 0, 0]>, <43, 0, 18, 18, 2, 0, 1, [0, 1, 1, 0, 0, 0, 0, 0]>, <44, 1, 19, 18, 2, 0, 1, [0, 1, 1, 0, 0, 0, 0, 0]>, <45, 2, 20, 18, 2, 0, 1, [0, 1, 1, 0, 0, 0, 0, 0]>, <46, 3, 21, 18, 2, 0, 1, [0, 1, 1, 0, 0, 0, 0, 0]>, <47, 4, 22, 18, 2, 0, 1, [0, 1, 1, 0, 0, 0, 0, 0]>, <48, 5, 23, 18, 2, 0, 1, [0, 1, 1, 0, 0, 0, 0, 0]>, <49, 6, 24, 18, 2, 0, 1, [0, 1, 1, 0, 0, 0, 0, 0]>, <50, 7, 25, 18, 2, 0, 1, [0, 1, 1, 0, 0, 0, 0, 0]>, <51, 8, 26, 18, 2, 0, 1, [0, 1, 1, 0, 0, 0, 0, 0]>, <52, 9, 27, 18, 2, 0, 1, [0, 1, 1, 0, 0, 0, 0, 0]>, <53, 10, 28, 18, 2, 0, 1, [0, 1, 1, 0, 0, 0, 0, 0]>, <54, 11, 29, 18, 2, 0, 1, [0, 1, 1, 0, 0, 0, 0, 0]>, <55, 0, 15, 15, 3, 0, 0, [0, 0, 0, 1, 1, 0, 0, 0]>, <56, 1, 16, 15, 3, 0, 0, [0, 0, 0, 1, 1, 0, 0, 0]>, <57, 2, 17, 15, 3, 0, 0, [0, 0, 0, 1, 1, 0, 0, 0]>, <58, 3, 18, 15, 3, 0, 0, [0, 0, 0, 1, 1, 0, 0, 0]>, <59, 4, 19, 15, 3, 0, 0, [0, 0, 0, 1, 1, 0, 0, 0]>, <60, 5, 20, 15, 3, 0, 0, [0, 0, 0, 1, 1, 0, 0, 0]>, <61, 6, 21, 15, 3, 0, 0, [0, 0, 0, 1, 1, 0, 0, 0]>, <62, 7, 22, 15, 3, 0, 0, [0, 0, 0, 1, 1, 0, 0, 0]>, <63, 8, 23, 15, 3, 0, 0, [0, 0, 0, 1, 1, 0, 0, 0]>, <64, 9, 24, 15, 3, 0, 0, [0, 0, 0, 1, 1, 0, 0, 0]>, <65, 10, 25, 15, 3, 0, 0, [0, 0, 0, 1, 1, 0, 0, 0]>, <66, 11, 26, 15, 3, 0, 0, [0, 0, 0, 1, 1, 0, 0, 0]>, <67, 12, 27, 15, 3, 0, 0, [0, 0, 0, 1, 1, 0, 0, 0]>, <68, 13, 28, 15, 3, 0, 0, [0, 0, 0, 1, 1, 0, 0, 0]>, <69, 14, 29, 15, 3, 0, 0, [0, 0, 0, 1, 1, 0, 0, 0]>, <70, 0, 16, 16, 4, 1, 0, [0, 0, 1, 1, 0, 0, 0, 0]>, <71, 1, 17, 16, 4, 1, 0, [0, 0, 1, 1, 0, 0, 0, 0]>, <72, 2, 18, 16, 4, 1, 0, [0, 0, 1, 1, 0, 0, 0, 0]>, <73, 3, 19, 16, 4, 1, 0, [0, 0, 1, 1, 0, 0, 0, 0]>, <74, 4, 20, 16, 4, 1, 0, [0, 0, 1, 1, 0, 0, 0, 0]>, <75, 5, 21, 16, 4, 1, 0, [0, 0, 1, 1, 0, 0, 0, 0]>, <76, 6, 22, 16, 4, 1, 0, [0, 0, 1, 1, 0, 0, 0, 0]>, <77, 7, 23, 16, 4, 1, 0, [0, 0, 1, 1, 0, 0, 0, 0]>, <78, 8, 24, 16, 4, 1, 0, [0, 0, 1, 1, 0, 0, 0, 0]>, <79, 9, 25, 16, 4, 1, 0, [0, 0, 1, 1, 0, 0, 0, 0]>, <80, 10, 26, 16, 4, 1, 0, [0, 0, 1, 1, 0, 0, 0, 0]>, <81, 11, 27, 16, 4, 1, 0, [0, 0, 1, 1, 0, 0, 0, 0]>, <82, 12, 28, 16, 4, 1, 0, [0, 0, 1, 1, 0, 0, 0, 0]>, <83, 13, 29, 16, 4, 1, 0, [0, 0, 1, 1, 0, 0, 0, 0]>, <84, 0, 17, 17, 5, 0, 0, [1, 0, 0, 0, 0, 0, 0, 1]>, <85, 1, 18, 17, 5, 0, 0, [1, 0, 0, 0, 0, 0, 0, 1]>, <86, 2, 19, 17, 5, 0, 0, [1, 0, 0, 0, 0, 0, 0, 1]>, <87, 3, 20, 17, 5, 0, 0, [1, 0, 0, 0, 0, 0, 0, 1]>, <88, 4, 21, 17, 5, 0, 0, [1, 0, 0, 0, 0, 0, 0, 1]>, <89, 5, 22, 17, 5, 0, 0, [1, 0, 0, 0, 0, 0, 0, 1]>, <90, 6, 23, 17, 5, 0, 0, [1, 0, 0, 0, 0, 0, 0, 1]>, <91, 7, 24, 17, 5, 0, 0, [1, 0, 0, 0, 0, 0, 0, 1]>, <92, 8, 25, 17, 5, 0, 0, [1, 0, 0, 0, 0, 0, 0, 1]>, <93, 9, 26, 17, 5, 0, 0, [1, 0, 0, 0, 0, 0, 0, 1]>, <94, 10, 27, 17, 5, 0, 0, [1, 0, 0, 0, 0, 0, 0, 1]>, <95, 11, 28, 17, 5, 0, 0, [1, 0, 0, 0, 0, 0, 0, 1]>, <96, 12, 29, 17, 5, 0, 0, [1, 0, 0, 0, 0, 0, 0, 1]>, <97, 0, 14, 14, 6, 0, 0, [0, 1, 1, 0, 0, 0, 0, 0]>, <98, 1, 15, 14, 6, 0, 0, [0, 1, 1, 0, 0, 0, 0, 0]>, <99, 2, 16, 14, 6, 0, 0, [0, 1, 1, 0, 0, 0, 0, 0]>, <100, 3, 17, 14, 6, 0, 0, [0, 1, 1, 0, 0, 0, 0, 0]>, <101, 4, 18, 14, 6, 0, 0, [0, 1, 1, 0, 0, 0, 0, 0]>, <102, 5, 19, 14, 6, 0, 0, [0, 1, 1, 0, 0, 0, 0, 0]>, <103, 6, 20, 14, 6, 0, 0, [0, 1, 1, 0, 0, 0, 0, 0]>, <104, 7, 21, 14, 6, 0, 0, [0, 1, 1, 0, 0, 0, 0, 0]>, <105, 8, 22, 14, 6, 0, 0, [0, 1, 1, 0, 0, 0, 0, 0]>, <106, 9, 23, 14, 6, 0, 0, [0, 1, 1, 0, 0, 0, 0, 0]>, <107, 10, 24, 14, 6, 0, 0, [0, 1, 1, 0, 0, 0, 0, 0]>, <108, 11, 25, 14, 6, 0, 0, [0, 1, 1, 0, 0, 0, 0, 0]>, <109, 12, 26, 14, 6, 0, 0, [0, 1, 1, 0, 0, 0, 0, 0]>, <110, 13, 27, 14, 6, 0, 0, [0, 1, 1, 0, 0, 0, 0, 0]>, <111, 14, 28, 14, 6, 0, 0, [0, 1, 1, 0, 0, 0, 0, 0]>, <112, 15, 29, 14, 6, 0, 0, [0, 1, 1, 0, 0, 0, 0, 0]>, <113, 0, 16, 16, 7, 1, 0, [1, 1, 0, 0, 0, 0, 0, 0]>, <114, 1, 17, 16, 7, 1, 0, [1, 1, 0, 0, 0, 0, 0, 0]>, <115, 2, 18, 16, 7, 1, 0, [1, 1, 0, 0, 0, 0, 0, 0]>, <116, 3, 19, 16, 7, 1, 0, [1, 1, 0, 0, 0, 0, 0, 0]>, <117, 4, 20, 16, 7, 1, 0, [1, 1, 0, 0, 0, 0, 0, 0]>, <118, 5, 21, 16, 7, 1, 0, [1, 1, 0, 0, 0, 0, 0, 0]>, <119, 6, 22, 16, 7, 1, 0, [1, 1, 0, 0, 0, 0, 0, 0]>, <120, 7, 23, 16, 7, 1, 0, [1, 1, 0, 0, 0, 0, 0, 0]>, <121, 8, 24, 16, 7, 1, 0, [1, 1, 0, 0, 0, 0, 0, 0]>, <122, 9, 25, 16, 7, 1, 0, [1, 1, 0, 0, 0, 0, 0, 0]>, <123, 10, 26, 16, 7, 1, 0, [1, 1, 0, 0, 0, 0, 0, 0]>, <124, 11, 27, 16, 7, 1, 0, [1, 1, 0, 0, 0, 0, 0, 0]>, <125, 12, 28, 16, 7, 1, 0, [1, 1, 0, 0, 0, 0, 0, 0]>, <126, 13, 29, 16, 7, 1, 0, [1, 1, 0, 0, 0, 0, 0, 0]>, <127, 0, 14, 14, 8, 1, 0, [1, 0, 0, 0, 0, 0, 0, 1]>, <128, 1, 15, 14, 8, 1, 0, [1, 0, 0, 0, 0, 0, 0, 1]>, <129, 2, 16, 14, 8, 1, 0, [1, 0, 0, 0, 0, 0, 0, 1]>, <130, 3, 17, 14, 8, 1, 0, [1, 0, 0, 0, 0, 0, 0, 1]>, <131, 4, 18, 14, 8, 1, 0, [1, 0, 0, 0, 0, 0, 0, 1]>, <132, 5, 19, 14, 8, 1, 0, [1, 0, 0, 0, 0, 0, 0, 1]>, <133, 6, 20, 14, 8, 1, 0, [1, 0, 0, 0, 0, 0, 0, 1]>, <134, 7, 21, 14, 8, 1, 0, [1, 0, 0, 0, 0, 0, 0, 1]>, <135, 8, 22, 14, 8, 1, 0, [1, 0, 0, 0, 0, 0, 0, 1]>, <136, 9, 23, 14, 8, 1, 0, [1, 0, 0, 0, 0, 0, 0, 1]>, <137, 10, 24, 14, 8, 1, 0, [1, 0, 0, 0, 0, 0, 0, 1]>, <138, 11, 25, 14, 8, 1, 0, [1, 0, 0, 0, 0, 0, 0, 1]>, <139, 12, 26, 14, 8, 1, 0, [1, 0, 0, 0, 0, 0, 0, 1]>, <140, 13, 27, 14, 8, 1, 0, [1, 0, 0, 0, 0, 0, 0, 1]>, <141, 14, 28, 14, 8, 1, 0, [1, 0, 0, 0, 0, 0, 0, 1]>, <142, 15, 29, 14, 8, 1, 0, [1, 0, 0, 0, 0, 0, 0, 1]>, <143, 0, 15, 15, 9, 0, 0, [0, 0, 1, 1, 0, 0, 0, 0]>, <144, 1, 16, 15, 9, 0, 0, [0, 0, 1, 1, 0, 0, 0, 0]>, <145, 2, 17, 15, 9, 0, 0, [0, 0, 1, 1, 0, 0, 0, 0]>, <146, 3, 18, 15, 9, 0, 0, [0, 0, 1, 1, 0, 0, 0, 0]>, <147, 4, 19, 15, 9, 0, 0, [0, 0, 1, 1, 0, 0, 0, 0]>, <148, 5, 20, 15, 9, 0, 0, [0, 0, 1, 1, 0, 0, 0, 0]>, <149, 6, 21, 15, 9, 0, 0, [0, 0, 1, 1, 0, 0, 0, 0]>, <150, 7, 22, 15, 9, 0, 0, [0, 0, 1, 1, 0, 0, 0, 0]>, <151, 8, 23, 15, 9, 0, 0, [0, 0, 1, 1, 0, 0, 0, 0]>, <152, 9, 24, 15, 9, 0, 0, [0, 0, 1, 1, 0, 0, 0, 0]>, <153, 10, 25, 15, 9, 0, 0, [0, 0, 1, 1, 0, 0, 0, 0]>, <154, 11, 26, 15, 9, 0, 0, [0, 0, 1, 1, 0, 0, 0, 0]>, <155, 12, 27, 15, 9, 0, 0, [0, 0, 1, 1, 0, 0, 0, 0]>, <156, 13, 28, 15, 9, 0, 0, [0, 0, 1, 1, 0, 0, 0, 0]>, <157, 14, 29, 15, 9, 0, 0, [0, 0, 1, 1, 0, 0, 0, 0]>, <158, 0, 17, 17, 10, 0, 0, [0, 0, 0, 0, 1, 1, 0, 0]>, <159, 1, 18, 17, 10, 0, 0, [0, 0, 0, 0, 1, 1, 0, 0]>, <160, 2, 19, 17, 10, 0, 0, [0, 0, 0, 0, 1, 1, 0, 0]>, <161, 3, 20, 17, 10, 0, 0, [0, 0, 0, 0, 1, 1, 0, 0]>, <162, 4, 21, 17, 10, 0, 0, [0, 0, 0, 0, 1, 1, 0, 0]>, <163, 5, 22, 17, 10, 0, 0, [0, 0, 0, 0, 1, 1, 0, 0]>, <164, 6, 23, 17, 10, 0, 0, [0, 0, 0, 0, 1, 1, 0, 0]>, <165, 7, 24, 17, 10, 0, 0, [0, 0, 0, 0, 1, 1, 0, 0]>, <166, 8, 25, 17, 10, 0, 0, [0, 0, 0, 0, 1, 1, 0, 0]>, <167, 9, 26, 17, 10, 0, 0, [0, 0, 0, 0, 1, 1, 0, 0]>, <168, 10, 27, 17, 10, 0, 0, [0, 0, 0, 0, 1, 1, 0, 0]>, <169, 11, 28, 17, 10, 0, 0, [0, 0, 0, 0, 1, 1, 0, 0]>, <170, 12, 29, 17, 10, 0, 0, [0, 0, 0, 0, 1, 1, 0, 0]>, <171, 0, 15, 15, 11, 0, 1, [1, 0, 0, 0, 0, 0, 0, 1]>, <172, 1, 16, 15, 11, 0, 1, [1, 0, 0, 0, 0, 0, 0, 1]>, <173, 2, 17, 15, 11, 0, 1, [1, 0, 0, 0, 0, 0, 0, 1]>, <174, 3, 18, 15, 11, 0, 1, [1, 0, 0, 0, 0, 0, 0, 1]>, <175, 4, 19, 15, 11, 0, 1, [1, 0, 0, 0, 0, 0, 0, 1]>, <176, 5, 20, 15, 11, 0, 1, [1, 0, 0, 0, 0, 0, 0, 1]>, <177, 6, 21, 15, 11, 0, 1, [1, 0, 0, 0, 0, 0, 0, 1]>, <178, 7, 22, 15, 11, 0, 1, [1, 0, 0, 0, 0, 0, 0, 1]>, <179, 8, 23, 15, 11, 0, 1, [1, 0, 0, 0, 0, 0, 0, 1]>, <180, 9, 24, 15, 11, 0, 1, [1, 0, 0, 0, 0, 0, 0, 1]>, <181, 10, 25, 15, 11, 0, 1, [1, 0, 0, 0, 0, 0, 0, 1]>, <182, 11, 26, 15, 11, 0, 1, [1, 0, 0, 0, 0, 0, 0, 1]>, <183, 12, 27, 15, 11, 0, 1, [1, 0, 0, 0, 0, 0, 0, 1]>, <184, 13, 28, 15, 11, 0, 1, [1, 0, 0, 0, 0, 0, 0, 1]>, <185, 14, 29, 15, 11, 0, 1, [1, 0, 0, 0, 0, 0, 0, 1]>, <186, 0, 13, 13, 12, 0, 0, [1, 1, 0, 0, 0, 0, 0, 0]>, <187, 1, 14, 13, 12, 0, 0, [1, 1, 0, 0, 0, 0, 0, 0]>, <188, 2, 15, 13, 12, 0, 0, [1, 1, 0, 0, 0, 0, 0, 0]>, <189, 3, 16, 13, 12, 0, 0, [1, 1, 0, 0, 0, 0, 0, 0]>, <190, 4, 17, 13, 12, 0, 0, [1, 1, 0, 0, 0, 0, 0, 0]>, <191, 5, 18, 13, 12, 0, 0, [1, 1, 0, 0, 0, 0, 0, 0]>, <192, 7, 20, 13, 12, 0, 0, [1, 1, 0, 0, 0, 0, 0, 0]>, <193, 8, 21, 13, 12, 0, 0, [1, 1, 0, 0, 0, 0, 0, 0]>, <194, 9, 22, 13, 12, 0, 0, [1, 1, 0, 0, 0, 0, 0, 0]>, <195, 10, 23, 13, 12, 0, 0, [1, 1, 0, 0, 0, 0, 0, 0]>, <196, 11, 24, 13, 12, 0, 0, [1, 1, 0, 0, 0, 0, 0, 0]>, <197, 12, 25, 13, 12, 0, 0, [1, 1, 0, 0, 0, 0, 0, 0]>, <198, 13, 26, 13, 12, 0, 0, [1, 1, 0, 0, 0, 0, 0, 0]>, <199, 14, 27, 13, 12, 0, 0, [1, 1, 0, 0, 0, 0, 0, 0]>, <200, 15, 28, 13, 12, 0, 0, [1, 1, 0, 0, 0, 0, 0, 0]>, <201, 16, 29, 13, 12, 0, 0, [1, 1, 0, 0, 0, 0, 0, 0]>, <202, 0, 15, 15, 13, 0, 0, [0, 0, 1, 1, 0, 0, 0, 0]>, <203, 1, 16, 15, 13, 0, 0, [0, 0, 1, 1, 0, 0, 0, 0]>, <204, 2, 17, 15, 13, 0, 0, [0, 0, 1, 1, 0, 0, 0, 0]>, <205, 3, 18, 15, 13, 0, 0, [0, 0, 1, 1, 0, 0, 0, 0]>, <206, 4, 19, 15, 13, 0, 0, [0, 0, 1, 1, 0, 0, 0, 0]>, <207, 5, 20, 15, 13, 0, 0, [0, 0, 1, 1, 0, 0, 0, 0]>, <208, 6, 21, 15, 13, 0, 0, [0, 0, 1, 1, 0, 0, 0, 0]>, <209, 7, 22, 15, 13, 0, 0, [0, 0, 1, 1, 0, 0, 0, 0]>, <210, 8, 23, 15, 13, 0, 0, [0, 0, 1, 1, 0, 0, 0, 0]>, <211, 9, 24, 15, 13, 0, 0, [0, 0, 1, 1, 0, 0, 0, 0]>, <212, 10, 25, 15, 13, 0, 0, [0, 0, 1, 1, 0, 0, 0, 0]>, <213, 11, 26, 15, 13, 0, 0, [0, 0, 1, 1, 0, 0, 0, 0]>, <214, 12, 27, 15, 13, 0, 0, [0, 0, 1, 1, 0, 0, 0, 0]>, <215, 13, 28, 15, 13, 0, 0, [0, 0, 1, 1, 0, 0, 0, 0]>, <216, 14, 29, 15, 13, 0, 0, [0, 0, 1, 1, 0, 0, 0, 0]>, <217, 0, 15, 15, 14, 0, 0, [1, 1, 0, 0, 0, 0, 0, 0]>, <218, 1, 16, 15, 14, 0, 0, [1, 1, 0, 0, 0, 0, 0, 0]>, <219, 2, 17, 15, 14, 0, 0, [1, 1, 0, 0, 0, 0, 0, 0]>, <220, 3, 18, 15, 14, 0, 0, [1, 1, 0, 0, 0, 0, 0, 0]>, <221, 4, 19, 15, 14, 0, 0, [1, 1, 0, 0, 0, 0, 0, 0]>, <222, 5, 20, 15, 14, 0, 0, [1, 1, 0, 0, 0, 0, 0, 0]>, <223, 6, 21, 15, 14, 0, 0, [1, 1, 0, 0, 0, 0, 0, 0]>, <224, 7, 22, 15, 14, 0, 0, [1, 1, 0, 0, 0, 0, 0, 0]>, <225, 8, 23, 15, 14, 0, 0, [1, 1, 0, 0, 0, 0, 0, 0]>, <226, 9, 24, 15, 14, 0, 0, [1, 1, 0, 0, 0, 0, 0, 0]>, <227, 10, 25, 15, 14, 0, 0, [1, 1, 0, 0, 0, 0, 0, 0]>, <228, 11, 26, 15, 14, 0, 0, [1, 1, 0, 0, 0, 0, 0, 0]>, <229, 12, 27, 15, 14, 0, 0, [1, 1, 0, 0, 0, 0, 0, 0]>, <230, 13, 28, 15, 14, 0, 0, [1, 1, 0, 0, 0, 0, 0, 0]>, <231, 14, 29, 15, 14, 0, 0, [1, 1, 0, 0, 0, 0, 0, 0]>, <232, 0, 15, 15, 15, 0, 0, [1, 0, 0, 0, 0, 0, 0, 1]>, <233, 1, 16, 15, 15, 0, 0, [1, 0, 0, 0, 0, 0, 0, 1]>, <234, 2, 17, 15, 15, 0, 0, [1, 0, 0, 0, 0, 0, 0, 1]>, <235, 3, 18, 15, 15, 0, 0, [1, 0, 0, 0, 0, 0, 0, 1]>, <236, 4, 19, 15, 15, 0, 0, [1, 0, 0, 0, 0, 0, 0, 1]>, <237, 5, 20, 15, 15, 0, 0, [1, 0, 0, 0, 0, 0, 0, 1]>, <238, 6, 21, 15, 15, 0, 0, [1, 0, 0, 0, 0, 0, 0, 1]>, <239, 7, 22, 15, 15, 0, 0, [1, 0, 0, 0, 0, 0, 0, 1]>, <240, 8, 23, 15, 15, 0, 0, [1, 0, 0, 0, 0, 0, 0, 1]>, <241, 9, 24, 15, 15, 0, 0, [1, 0, 0, 0, 0, 0, 0, 1]>, <242, 10, 25, 15, 15, 0, 0, [1, 0, 0, 0, 0, 0, 0, 1]>, <243, 11, 26, 15, 15, 0, 0, [1, 0, 0, 0, 0, 0, 0, 1]>, <244, 12, 27, 15, 15, 0, 0, [1, 0, 0, 0, 0, 0, 0, 1]>, <245, 13, 28, 15, 15, 0, 0, [1, 0, 0, 0, 0, 0, 0, 1]>, <246, 14, 29, 15, 15, 0, 0, [1, 0, 0, 0, 0, 0, 0, 1]>, <247, 0, 14, 14, 16, 0, 0, [0, 1, 1, 0, 0, 0, 0, 0]>, <248, 1, 15, 14, 16, 0, 0, [0, 1, 1, 0, 0, 0, 0, 0]>, <249, 2, 16, 14, 16, 0, 0, [0, 1, 1, 0, 0, 0, 0, 0]>, <250, 3, 17, 14, 16, 0, 0, [0, 1, 1, 0, 0, 0, 0, 0]>, <251, 4, 18, 14, 16, 0, 0, [0, 1, 1, 0, 0, 0, 0, 0]>, <252, 5, 19, 14, 16, 0, 0, [0, 1, 1, 0, 0, 0, 0, 0]>, <253, 6, 20, 14, 16, 0, 0, [0, 1, 1, 0, 0, 0, 0, 0]>, <254, 7, 21, 14, 16, 0, 0, [0, 1, 1, 0, 0, 0, 0, 0]>, <255, 8, 22, 14, 16, 0, 0, [0, 1, 1, 0, 0, 0, 0, 0]>, <256, 9, 23, 14, 16, 0, 0, [0, 1, 1, 0, 0, 0, 0, 0]>, <257, 10, 24, 14, 16, 0, 0, [0, 1, 1, 0, 0, 0, 0, 0]>, <258, 11, 25, 14, 16, 0, 0, [0, 1, 1, 0, 0, 0, 0, 0]>, <259, 12, 26, 14, 16, 0, 0, [0, 1, 1, 0, 0, 0, 0, 0]>, <260, 13, 27, 14, 16, 0, 0, [0, 1, 1, 0, 0, 0, 0, 0]>, <261, 14, 28, 14, 16, 0, 0, [0, 1, 1, 0, 0, 0, 0, 0]>, <262, 15, 29, 14, 16, 0, 0, [0, 1, 1, 0, 0, 0, 0, 0]>, <263, 0, 14, 14, 17, 0, 1, [0, 1, 1, 0, 0, 0, 0, 0]>, <264, 1, 15, 14, 17, 0, 1, [0, 1, 1, 0, 0, 0, 0, 0]>, <265, 2, 16, 14, 17, 0, 1, [0, 1, 1, 0, 0, 0, 0, 0]>, <266, 3, 17, 14, 17, 0, 1, [0, 1, 1, 0, 0, 0, 0, 0]>, <267, 4, 18, 14, 17, 0, 1, [0, 1, 1, 0, 0, 0, 0, 0]>, <268, 5, 19, 14, 17, 0, 1, [0, 1, 1, 0, 0, 0, 0, 0]>, <269, 6, 20, 14, 17, 0, 1, [0, 1, 1, 0, 0, 0, 0, 0]>, <270, 7, 21, 14, 17, 0, 1, [0, 1, 1, 0, 0, 0, 0, 0]>, <271, 8, 22, 14, 17, 0, 1, [0, 1, 1, 0, 0, 0, 0, 0]>, <272, 9, 23, 14, 17, 0, 1, [0, 1, 1, 0, 0, 0, 0, 0]>, <273, 10, 24, 14, 17, 0, 1, [0, 1, 1, 0, 0, 0, 0, 0]>, <274, 11, 25, 14, 17, 0, 1, [0, 1, 1, 0, 0, 0, 0, 0]>, <275, 12, 26, 14, 17, 0, 1, [0, 1, 1, 0, 0, 0, 0, 0]>, <276, 13, 27, 14, 17, 0, 1, [0, 1, 1, 0, 0, 0, 0, 0]>, <277, 14, 28, 14, 17, 0, 1, [0, 1, 1, 0, 0, 0, 0, 0]>, <278, 15, 29, 14, 17, 0, 1, [0, 1, 1, 0, 0, 0, 0, 0]>, <279, 0, 15, 15, 18, 0, 1, [0, 0, 0, 0, 1, 1, 0, 0]>, <280, 1, 16, 15, 18, 0, 1, [0, 0, 0, 0, 1, 1, 0, 0]>, <281, 2, 17, 15, 18, 0, 1, [0, 0, 0, 0, 1, 1, 0, 0]>, <282, 3, 18, 15, 18, 0, 1, [0, 0, 0, 0, 1, 1, 0, 0]>, <283, 4, 19, 15, 18, 0, 1, [0, 0, 0, 0, 1, 1, 0, 0]>, <284, 5, 20, 15, 18, 0, 1, [0, 0, 0, 0, 1, 1, 0, 0]>, <285, 6, 21, 15, 18, 0, 1, [0, 0, 0, 0, 1, 1, 0, 0]>, <286, 7, 22, 15, 18, 0, 1, [0, 0, 0, 0, 1, 1, 0, 0]>, <287, 8, 23, 15, 18, 0, 1, [0, 0, 0, 0, 1, 1, 0, 0]>, <288, 9, 24, 15, 18, 0, 1, [0, 0, 0, 0, 1, 1, 0, 0]>, <289, 10, 25, 15, 18, 0, 1, [0, 0, 0, 0, 1, 1, 0, 0]>, <290, 11, 26, 15, 18, 0, 1, [0, 0, 0, 0, 1, 1, 0, 0]>, <291, 12, 27, 15, 18, 0, 1, [0, 0, 0, 0, 1, 1, 0, 0]>, <292, 13, 28, 15, 18, 0, 1, [0, 0, 0, 0, 1, 1, 0, 0]>, <293, 14, 29, 15, 18, 0, 1, [0, 0, 0, 0, 1, 1, 0, 0]>, <294, 0, 15, 15, 19, 0, 0, [0, 0, 0, 0, 0, 1, 1, 0]>, <295, 1, 16, 15, 19, 0, 0, [0, 0, 0, 0, 0, 1, 1, 0]>, <296, 2, 17, 15, 19, 0, 0, [0, 0, 0, 0, 0, 1, 1, 0]>, <297, 3, 18, 15, 19, 0, 0, [0, 0, 0, 0, 0, 1, 1, 0]>, <298, 4, 19, 15, 19, 0, 0, [0, 0, 0, 0, 0, 1, 1, 0]>, <299, 5, 20, 15, 19, 0, 0, [0, 0, 0, 0, 0, 1, 1, 0]>, <300, 6, 21, 15, 19, 0, 0, [0, 0, 0, 0, 0, 1, 1, 0]>, <301, 7, 22, 15, 19, 0, 0, [0, 0, 0, 0, 0, 1, 1, 0]>, <302, 8, 23, 15, 19, 0, 0, [0, 0, 0, 0, 0, 1, 1, 0]>, <303, 9, 24, 15, 19, 0, 0, [0, 0, 0, 0, 0, 1, 1, 0]>, <304, 10, 25, 15, 19, 0, 0, [0, 0, 0, 0, 0, 1, 1, 0]>, <305, 11, 26, 15, 19, 0, 0, [0, 0, 0, 0, 0, 1, 1, 0]>, <306, 12, 27, 15, 19, 0, 0, [0, 0, 0, 0, 0, 1, 1, 0]>, <307, 13, 28, 15, 19, 0, 0, [0, 0, 0, 0, 0, 1, 1, 0]>, <308, 14, 29, 15, 19, 0, 0, [0, 0, 0, 0, 0, 1, 1, 0]>, <309, 0, 14, 14, 20, 0, 0, [0, 0, 0, 0, 0, 1, 1, 0]>, <310, 1, 15, 14, 20, 0, 0, [0, 0, 0, 0, 0, 1, 1, 0]>, <311, 2, 16, 14, 20, 0, 0, [0, 0, 0, 0, 0, 1, 1, 0]>, <312, 3, 17, 14, 20, 0, 0, [0, 0, 0, 0, 0, 1, 1, 0]>, <313, 4, 18, 14, 20, 0, 0, [0, 0, 0, 0, 0, 1, 1, 0]>, <314, 5, 19, 14, 20, 0, 0, [0, 0, 0, 0, 0, 1, 1, 0]>, <315, 6, 20, 14, 20, 0, 0, [0, 0, 0, 0, 0, 1, 1, 0]>, <316, 7, 21, 14, 20, 0, 0, [0, 0, 0, 0, 0, 1, 1, 0]>, <317, 8, 22, 14, 20, 0, 0, [0, 0, 0, 0, 0, 1, 1, 0]>, <318, 9, 23, 14, 20, 0, 0, [0, 0, 0, 0, 0, 1, 1, 0]>, <319, 10, 24, 14, 20, 0, 0, [0, 0, 0, 0, 0, 1, 1, 0]>, <320, 11, 25, 14, 20, 0, 0, [0, 0, 0, 0, 0, 1, 1, 0]>, <321, 12, 26, 14, 20, 0, 0, [0, 0, 0, 0, 0, 1, 1, 0]>, <322, 13, 27, 14, 20, 0, 0, [0, 0, 0, 0, 0, 1, 1, 0]>, <323, 14, 28, 14, 20, 0, 0, [0, 0, 0, 0, 0, 1, 1, 0]>, <324, 15, 29, 14, 20, 0, 0, [0, 0, 0, 0, 0, 1, 1, 0]>, <325, 0, 16, 16, 21, 0, 1, [0, 0, 0, 1, 1, 0, 0, 0]>, <326, 1, 17, 16, 21, 0, 1, [0, 0, 0, 1, 1, 0, 0, 0]>, <327, 2, 18, 16, 21, 0, 1, [0, 0, 0, 1, 1, 0, 0, 0]>, <328, 3, 19, 16, 21, 0, 1, [0, 0, 0, 1, 1, 0, 0, 0]>, <329, 4, 20, 16, 21, 0, 1, [0, 0, 0, 1, 1, 0, 0, 0]>, <330, 5, 21, 16, 21, 0, 1, [0, 0, 0, 1, 1, 0, 0, 0]>, <331, 6, 22, 16, 21, 0, 1, [0, 0, 0, 1, 1, 0, 0, 0]>, <332, 7, 23, 16, 21, 0, 1, [0, 0, 0, 1, 1, 0, 0, 0]>, <333, 8, 24, 16, 21, 0, 1, [0, 0, 0, 1, 1, 0, 0, 0]>, <334, 9, 25, 16, 21, 0, 1, [0, 0, 0, 1, 1, 0, 0, 0]>, <335, 10, 26, 16, 21, 0, 1, [0, 0, 0, 1, 1, 0, 0, 0]>, <336, 11, 27, 16, 21, 0, 1, [0, 0, 0, 1, 1, 0, 0, 0]>, <337, 12, 28, 16, 21, 0, 1, [0, 0, 0, 1, 1, 0, 0, 0]>, <338, 13, 29, 16, 21, 0, 1, [0, 0, 0, 1, 1, 0, 0, 0]>};
